; Copyright (c) 2026 The RIINA Authors. All rights reserved.
; Copyright (c) 2026 The RIINA Authors.
; Auto-generated from 02_FORMAL/coq/domains/OperationalSecurity.v (25 assertions)
; Generated by scripts/generate-full-stack.py
; Module: OperationalSecurity

(set-logic ALL)
(set-option :produce-models true)

; budget_ok (matches Coq: Definition budget_ok)
(define-fun budget_ok ((b InsiderBudget)) Prop
  true)

; is_duress (matches Coq: Definition is_duress)
(define-fun is_duress () Bool true)

; dead_man_triggered (matches Coq: Definition dead_man_triggered)
(define-fun dead_man_triggered () Bool Nat)

; within_time_window (matches Coq: Definition within_time_window)
(define-fun within_time_window () Bool Nat)

; roles_distinct (matches Coq: Definition roles_distinct)
(define-fun roles_distinct () Prop true)

; anomaly_detected (matches Coq: Definition anomaly_detected)
(define-fun anomaly_detected () Bool Nat)

; action_audited (matches Coq: Definition action_audited)
(define-fun action_audited ((action Int)) Bool
  true)

; platforms_independent (matches Coq: Definition platforms_independent)
(define-fun platforms_independent () Bool true)

; majority_agrees (matches Coq: Definition majority_agrees)
(define-fun majority_agrees ((expected Int)) Bool
  Nat)

; time_lock_expired (matches Coq: Definition time_lock_expired)
(define-fun time_lock_expired () Bool Nat)

; in_cancellation_window (matches Coq: Definition in_cancellation_window)
(define-fun in_cancellation_window () Bool Nat)

; principals_unique (matches Coq: Definition principals_unique)
(define-fun principals_unique () Prop true)

; channels_diverse (matches Coq: Definition channels_diverse)
(define-fun channels_diverse () Prop true)

; jurisdictions_spread (matches Coq: Definition jurisdictions_spread)
(define-fun jurisdictions_spread ((shares ShareSet)) Prop
  true)

; all_signatures_valid (matches Coq: Definition all_signatures_valid)
(define-fun all_signatures_valid () Bool true)

; reset_budget (matches Coq: Definition reset_budget)
(define-fun reset_budget ((b InsiderBudget)) InsiderBudget
  true)

; layers_active (matches Coq: Definition layers_active)
(define-fun layers_active () Bool true)

; opsec_001_shamir_security (matches Coq: Theorem opsec_001_shamir_security)
(assert (= true true)) ; opsec_001_shamir_security [untranslatable]

; opsec_002_shamir_reconstruction (matches Coq: Theorem opsec_002_shamir_reconstruction)
(assert (= true true)) ; opsec_002_shamir_reconstruction [untranslatable]

; opsec_003_no_single_keyholder (matches Coq: Theorem opsec_003_no_single_keyholder)
(assert (= true true)) ; opsec_003_no_single_keyholder [untranslatable]

; opsec_004_geographic_distribution (matches Coq: Theorem opsec_004_geographic_distribution)
(assert (= true true)) ; opsec_004_geographic_distribution [untranslatable]

; opsec_005_multiparty_required (matches Coq: Theorem opsec_005_multiparty_required)
(assert (= true true)) ; opsec_005_multiparty_required [untranslatable]

; opsec_006_social_engineering_insufficient (matches Coq: Theorem opsec_006_social_engineering_insufficient)
(assert (= true true)) ; opsec_006_social_engineering_insufficient [untranslatable]

; opsec_007_insider_bounded (matches Coq: Theorem opsec_007_insider_bounded)
(assert (= true true)) ; opsec_007_insider_bounded [untranslatable]

; opsec_008_export_limit (matches Coq: Theorem opsec_008_export_limit)
(assert (= true true)) ; opsec_008_export_limit [untranslatable]

; opsec_009_duress_detection (matches Coq: Theorem opsec_009_duress_detection)
(assert (= true true)) ; opsec_009_duress_detection [untranslatable]

; opsec_010_dead_man_switch (matches Coq: Theorem opsec_010_dead_man_switch)
(assert (= true true)) ; opsec_010_dead_man_switch [untranslatable]

; opsec_011_time_window (matches Coq: Theorem opsec_011_time_window)
(assert (= true true)) ; opsec_011_time_window [untranslatable]

; opsec_012_role_separation (matches Coq: Theorem opsec_012_role_separation)
(assert (= true true)) ; opsec_012_role_separation [untranslatable]

; opsec_013_anomaly_detection (matches Coq: Theorem opsec_013_anomaly_detection)
(assert (= true true)) ; opsec_013_anomaly_detection [untranslatable]

; opsec_014_audit_complete (matches Coq: Theorem opsec_014_audit_complete)
(assert (= true true)) ; opsec_014_audit_complete [untranslatable]

; opsec_015_hardware_diversity (matches Coq: Theorem opsec_015_hardware_diversity)
(assert (= true true)) ; opsec_015_hardware_diversity [untranslatable]

; opsec_016_nversion_consensus (matches Coq: Theorem opsec_016_nversion_consensus)
(assert (= true true)) ; opsec_016_nversion_consensus [untranslatable]

; opsec_017_time_lock (matches Coq: Theorem opsec_017_time_lock)
(assert (= true true)) ; opsec_017_time_lock [untranslatable]

; opsec_018_cancellation_window (matches Coq: Theorem opsec_018_cancellation_window)
(assert (= true true)) ; opsec_018_cancellation_window [untranslatable]

; opsec_019_principal_uniqueness (matches Coq: Theorem opsec_019_principal_uniqueness)
(assert (= true true)) ; opsec_019_principal_uniqueness [untranslatable]

; opsec_020_channel_diversity (matches Coq: Theorem opsec_020_channel_diversity)
(assert (= true true)) ; opsec_020_channel_diversity [untranslatable]

; opsec_021_coercion_resistant (matches Coq: Theorem opsec_021_coercion_resistant)
(assert (= true true)) ; opsec_021_coercion_resistant [untranslatable]

; opsec_022_jurisdictional_spread (matches Coq: Theorem opsec_022_jurisdictional_spread)
(assert (= true true)) ; opsec_022_jurisdictional_spread [untranslatable]

; opsec_023_signatures_valid (matches Coq: Theorem opsec_023_signatures_valid)
(assert (= true true)) ; opsec_023_signatures_valid [untranslatable]

; opsec_024_budget_reset (matches Coq: Theorem opsec_024_budget_reset)
(assert (= true true)) ; opsec_024_budget_reset [untranslatable]

; opsec_025_defense_in_depth (matches Coq: Theorem opsec_025_defense_in_depth)
(assert (= true true)) ; opsec_025_defense_in_depth [untranslatable]

; Verify all assertions are satisfiable
(check-sat)
(exit)
